6934
698
817
5361
2692
2735
3998
1172
2207
2411
9033
9937
5694
9205
4406
935
5829
4407
3083
2326
3605
7187
6415
8459
8620
4123
4393
458
716
1858
6200
1814
6964
2451
1340
2699
2842
8517
7809
3494
7042
8422
3159
9575
1361
1438
6194
7175
6134
5760
